-2, -1, 7.31
-2, 0, 7.21
-2, 1, 5.17
-2, 2, 2.37
-2, 3, 7.56
-2, 4, 3.17
-1, 0, 6.54
-1, 1, 6.18
-1, 2, 3.34
-1, 3, 6.2
-1, 4, 3.45
0, 1, 7.48
0, 2, 1.44
0, 3, 7.87
0, 4, 5.44
1, 2, 3.88
1, 3, 7.43
1, 4, 2.79
2, 3, 5.22
2, 4, 1.6
3, 4, 3.09
